\ENCODING=ISO-8859-1
\Problem name: linSegm

Minimize
 obj1: 2.26960899716229 x0 + 2.0762341629305 x1 + 1.93031855858284 x2
       + 2.10974567898665 x3 + 2.33194444444444 x4 + 2.8767144047956 x5
       + 2.83420663903098 x6 + 6.68696771570152 x7 + 8.76243441839304 x8
       + 12.7436621404637 x9 + 16.2862023504328 x10 + 23.5577205882353 x11
       + 29.0347243471804 x12 + 33.1970863526407 x13 + 37.2932380965703 x14
       + 42.2501681840348 x15 + 0.357770876399966 x16 + 0.451017158988648 x17
       + 0.455582177287908 x18 + 1.25111601611727 x19 + 1.51296296296296 x20
       + 1.43931546835543 x21 + 4.55282130312423 x22 + 6.00708394153781 x23
       + 9.08816839351157 x24 + 11.7239577097825 x25 + 17.6463572160652 x26
       + 21.8655330882353 x27 + 24.8954199573906 x28 + 27.8609071770611 x29
       + 31.5747490670388 x30 + 0.301869176962472 x31 + 0.384919816723071 x32
       + 1.01240483841757 x33 + 1.45630325172944 x34 + 1.39444444444444 x35
       + 4.77408100089663 x36 + 6.20222540857577 x37 + 9.13608015567739 x38
       + 11.4932661536557 x39 + 16.9141122889873 x40 + 20.5413354224476 x41
       + 22.9772977941176 x42 + 25.31584476329 x43 + 28.3122847084068 x44
       + 0.301869176962472 x45 + 0.742623080748551 x46 + 1.4443642361424 x47
       + 1.4026388978001 x48 + 5.00601851851852 x49 + 6.33030491608252 x50
       + 9.00422515398139 x51 + 10.9865617876954 x52 + 15.768953174422 x53
       + 18.7168040503702 x54 + 20.5185124848717 x55 + 22.2121323529412 x56
       + 24.4794535269515 x57 + 0.804984471899925 x58 + 1.51246271419469 x59
       + 1.42749082216878 x60 + 4.75403041279884 x61 + 5.6875 x62
       + 7.75332986315829 x63 + 9.12140342653321 x64 + 12.9219132363819 x65
       + 14.9978589456034 x66 + 16.082371808662 x67 + 17.086618908649 x68
       + 18.5797794117647 x69 + 1.52052622469986 x70 + 1.38998822705553 x71
       + 4.26222436973798 x72 + 4.75403041279884 x73 + 6.15416666666667 x74
       + 6.92538807576875 x75 + 9.7299081401356 x76 + 11.0061600704345 x77
       + 11.4989807847981 x78 + 11.9530387742789 x79 + 12.8094313481351 x80
       + 1.50934588481236 x81 + 4.11164349681462 x82 + 4.26222436973798 x83
       + 5.13283761700592 x84 + 5.46157407407407 x85 + 7.46201701203974 x86
       + 8.14012105054376 x87 + 8.24053115858212 x88 + 8.33840878762472 x89
       + 8.7547146815027 x90 + 4.02492235949962 x91 + 3.8686385620147 x92
       + 4.26222436973798 x93 + 4.2563198361601 x94 + 5.56111111111111 x95
       + 5.79463424576915 x96 + 5.6677280250061 x97 + 5.5657440723015 x98
       + 5.69291554408901 x99 + 1.55406724436235 x100 + 1.5007984773243 x101
       + 1.3903693114268 x102 + 1.95822279730382 x103 + 1.93194444444445 x104
       + 1.83316277694003 x105 + 1.74808054549517 x106 + 1.7425649077508 x107
       + 1.64350996346235 x108 + 1.50079847732429 x109 + 2.02143499404042 x110
       + 1.94243916379519 x111 + 1.83935185185185 x112 + 1.74691884075362 x113
       + 1.71039162742295 x114 + 1.0285912696499 x115 + 1.21891275295639 x116
       + 1.13051873623296 x117 + 1.16272766846895 x118 + 1.15185185185185 x119
       + 1.09529798956741 x120 + 1.0285912696499 x121 + 0.956467423372482 x122
       + 0.917913720165266 x123 + 0.868099842974554 x124
       + 0.850462962962965 x125 + 0.357770876399964 x126
       + 0.521002580211027 x127 + 0.563572026719116 x128
       + 0.528225601422094 x129 + 0.536656314599951 x130
       + 0.538498935516619 x131 + 0.50957710200351 x132
       + 0.581377674149945 x133 + 0.548219132908619 x134
       + 0.212426457862483 x135
Subject To
 c0:  x0 + x1 + x2 + x3 + x4 + x5 + x6 + x7 + x8 + x9 + x10 + x11 + x12 + x13
      + x14 + x15 >= 1
 c1:  x0 + x1 + x2 + x3 + x4 + x5 + x6 + x7 + x8 + x9 + x10 + x11 + x12 + x13
      + x14 + x15 + x16 + x17 + x18 + x19 + x20 + x21 + x22 + x23 + x24 + x25
      + x26 + x27 + x28 + x29 + x30 >= 1
 c2:  x0 + x1 + x2 + x3 + x4 + x5 + x6 + x7 + x8 + x9 + x10 + x11 + x12 + x13
      + x14 + x15 + x16 + x17 + x18 + x19 + x20 + x21 + x22 + x23 + x24 + x25
      + x26 + x27 + x28 + x29 + x30 + x31 + x32 + x33 + x34 + x35 + x36 + x37
      + x38 + x39 + x40 + x41 + x42 + x43 + x44 >= 1
 c3:  x0 + x1 + x2 + x3 + x4 + x5 + x6 + x7 + x8 + x9 + x10 + x11 + x12 + x13
      + x14 + x15 + x16 + x17 + x18 + x19 + x20 + x21 + x22 + x23 + x24 + x25
      + x26 + x27 + x28 + x29 + x30 + x31 + x32 + x33 + x34 + x35 + x36 + x37
      + x38 + x39 + x40 + x41 + x42 + x43 + x44 + x45 + x46 + x47 + x48 + x49
      + x50 + x51 + x52 + x53 + x54 + x55 + x56 + x57 >= 1
 c4:  x0 + x1 + x2 + x3 + x4 + x5 + x6 + x7 + x8 + x9 + x10 + x11 + x12 + x13
      + x14 + x15 + x16 + x17 + x18 + x19 + x20 + x21 + x22 + x23 + x24 + x25
      + x26 + x27 + x28 + x29 + x30 + x31 + x32 + x33 + x34 + x35 + x36 + x37
      + x38 + x39 + x40 + x41 + x42 + x43 + x44 + x45 + x46 + x47 + x48 + x49
      + x50 + x51 + x52 + x53 + x54 + x55 + x56 + x57 + x58 + x59 + x60 + x61
      + x62 + x63 + x64 + x65 + x66 + x67 + x68 + x69 >= 1
 c5:  x1 + x2 + x3 + x4 + x5 + x6 + x7 + x8 + x9 + x10 + x11 + x12 + x13 + x14
      + x15 + x16 + x17 + x18 + x19 + x20 + x21 + x22 + x23 + x24 + x25 + x26
      + x27 + x28 + x29 + x30 + x31 + x32 + x33 + x34 + x35 + x36 + x37 + x38
      + x39 + x40 + x41 + x42 + x43 + x44 + x45 + x46 + x47 + x48 + x49 + x50
      + x51 + x52 + x53 + x54 + x55 + x56 + x57 + x58 + x59 + x60 + x61 + x62
      + x63 + x64 + x65 + x66 + x67 + x68 + x69 + x70 + x71 + x72 + x73 + x74
      + x75 + x76 + x77 + x78 + x79 + x80 >= 1
 c6:  x2 + x3 + x4 + x5 + x6 + x7 + x8 + x9 + x10 + x11 + x12 + x13 + x14 + x15
      + x17 + x18 + x19 + x20 + x21 + x22 + x23 + x24 + x25 + x26 + x27 + x28
      + x29 + x30 + x31 + x32 + x33 + x34 + x35 + x36 + x37 + x38 + x39 + x40
      + x41 + x42 + x43 + x44 + x45 + x46 + x47 + x48 + x49 + x50 + x51 + x52
      + x53 + x54 + x55 + x56 + x57 + x58 + x59 + x60 + x61 + x62 + x63 + x64
      + x65 + x66 + x67 + x68 + x69 + x70 + x71 + x72 + x73 + x74 + x75 + x76
      + x77 + x78 + x79 + x80 + x81 + x82 + x83 + x84 + x85 + x86 + x87 + x88
      + x89 + x90 >= 1
 c7:  x3 + x4 + x5 + x6 + x7 + x8 + x9 + x10 + x11 + x12 + x13 + x14 + x15
      + x18 + x19 + x20 + x21 + x22 + x23 + x24 + x25 + x26 + x27 + x28 + x29
      + x30 + x32 + x33 + x34 + x35 + x36 + x37 + x38 + x39 + x40 + x41 + x42
      + x43 + x44 + x45 + x46 + x47 + x48 + x49 + x50 + x51 + x52 + x53 + x54
      + x55 + x56 + x57 + x58 + x59 + x60 + x61 + x62 + x63 + x64 + x65 + x66
      + x67 + x68 + x69 + x70 + x71 + x72 + x73 + x74 + x75 + x76 + x77 + x78
      + x79 + x80 + x81 + x82 + x83 + x84 + x85 + x86 + x87 + x88 + x89 + x90
      + x91 + x92 + x93 + x94 + x95 + x96 + x97 + x98 + x99 >= 1
 c8:  x4 + x5 + x6 + x7 + x8 + x9 + x10 + x11 + x12 + x13 + x14 + x15 + x19
      + x20 + x21 + x22 + x23 + x24 + x25 + x26 + x27 + x28 + x29 + x30 + x33
      + x34 + x35 + x36 + x37 + x38 + x39 + x40 + x41 + x42 + x43 + x44 + x46
      + x47 + x48 + x49 + x50 + x51 + x52 + x53 + x54 + x55 + x56 + x57 + x58
      + x59 + x60 + x61 + x62 + x63 + x64 + x65 + x66 + x67 + x68 + x69 + x70
      + x71 + x72 + x73 + x74 + x75 + x76 + x77 + x78 + x79 + x80 + x81 + x82
      + x83 + x84 + x85 + x86 + x87 + x88 + x89 + x90 + x91 + x92 + x93 + x94
      + x95 + x96 + x97 + x98 + x99 + x100 + x101 + x102 + x103 + x104 + x105
      + x106 + x107 >= 1
 c9:  x5 + x6 + x7 + x8 + x9 + x10 + x11 + x12 + x13 + x14 + x15 + x20 + x21
      + x22 + x23 + x24 + x25 + x26 + x27 + x28 + x29 + x30 + x34 + x35 + x36
      + x37 + x38 + x39 + x40 + x41 + x42 + x43 + x44 + x47 + x48 + x49 + x50
      + x51 + x52 + x53 + x54 + x55 + x56 + x57 + x59 + x60 + x61 + x62 + x63
      + x64 + x65 + x66 + x67 + x68 + x69 + x70 + x71 + x72 + x73 + x74 + x75
      + x76 + x77 + x78 + x79 + x80 + x81 + x82 + x83 + x84 + x85 + x86 + x87
      + x88 + x89 + x90 + x91 + x92 + x93 + x94 + x95 + x96 + x97 + x98 + x99
      + x100 + x101 + x102 + x103 + x104 + x105 + x106 + x107 + x108 + x109
      + x110 + x111 + x112 + x113 + x114 >= 1
 c10: x6 + x7 + x8 + x9 + x10 + x11 + x12 + x13 + x14 + x15 + x21 + x22 + x23
      + x24 + x25 + x26 + x27 + x28 + x29 + x30 + x35 + x36 + x37 + x38 + x39
      + x40 + x41 + x42 + x43 + x44 + x48 + x49 + x50 + x51 + x52 + x53 + x54
      + x55 + x56 + x57 + x60 + x61 + x62 + x63 + x64 + x65 + x66 + x67 + x68
      + x69 + x71 + x72 + x73 + x74 + x75 + x76 + x77 + x78 + x79 + x80 + x81
      + x82 + x83 + x84 + x85 + x86 + x87 + x88 + x89 + x90 + x91 + x92 + x93
      + x94 + x95 + x96 + x97 + x98 + x99 + x100 + x101 + x102 + x103 + x104
      + x105 + x106 + x107 + x108 + x109 + x110 + x111 + x112 + x113 + x114
      + x115 + x116 + x117 + x118 + x119 + x120 >= 1
 c11: x7 + x8 + x9 + x10 + x11 + x12 + x13 + x14 + x15 + x22 + x23 + x24 + x25
      + x26 + x27 + x28 + x29 + x30 + x36 + x37 + x38 + x39 + x40 + x41 + x42
      + x43 + x44 + x49 + x50 + x51 + x52 + x53 + x54 + x55 + x56 + x57 + x61
      + x62 + x63 + x64 + x65 + x66 + x67 + x68 + x69 + x72 + x73 + x74 + x75
      + x76 + x77 + x78 + x79 + x80 + x82 + x83 + x84 + x85 + x86 + x87 + x88
      + x89 + x90 + x91 + x92 + x93 + x94 + x95 + x96 + x97 + x98 + x99 + x100
      + x101 + x102 + x103 + x104 + x105 + x106 + x107 + x108 + x109 + x110
      + x111 + x112 + x113 + x114 + x115 + x116 + x117 + x118 + x119 + x120
      + x121 + x122 + x123 + x124 + x125 >= 1
 c12: x8 + x9 + x10 + x11 + x12 + x13 + x14 + x15 + x23 + x24 + x25 + x26 + x27
      + x28 + x29 + x30 + x37 + x38 + x39 + x40 + x41 + x42 + x43 + x44 + x50
      + x51 + x52 + x53 + x54 + x55 + x56 + x57 + x62 + x63 + x64 + x65 + x66
      + x67 + x68 + x69 + x73 + x74 + x75 + x76 + x77 + x78 + x79 + x80 + x83
      + x84 + x85 + x86 + x87 + x88 + x89 + x90 + x92 + x93 + x94 + x95 + x96
      + x97 + x98 + x99 + x100 + x101 + x102 + x103 + x104 + x105 + x106 + x107
      + x108 + x109 + x110 + x111 + x112 + x113 + x114 + x115 + x116 + x117
      + x118 + x119 + x120 + x121 + x122 + x123 + x124 + x125 + x126 + x127
      + x128 + x129 >= 1
 c13: x9 + x10 + x11 + x12 + x13 + x14 + x15 + x24 + x25 + x26 + x27 + x28
      + x29 + x30 + x38 + x39 + x40 + x41 + x42 + x43 + x44 + x51 + x52 + x53
      + x54 + x55 + x56 + x57 + x63 + x64 + x65 + x66 + x67 + x68 + x69 + x74
      + x75 + x76 + x77 + x78 + x79 + x80 + x84 + x85 + x86 + x87 + x88 + x89
      + x90 + x93 + x94 + x95 + x96 + x97 + x98 + x99 + x101 + x102 + x103
      + x104 + x105 + x106 + x107 + x108 + x109 + x110 + x111 + x112 + x113
      + x114 + x115 + x116 + x117 + x118 + x119 + x120 + x121 + x122 + x123
      + x124 + x125 + x126 + x127 + x128 + x129 + x130 + x131 + x132 >= 1
 c14: x10 + x11 + x12 + x13 + x14 + x15 + x25 + x26 + x27 + x28 + x29 + x30
      + x39 + x40 + x41 + x42 + x43 + x44 + x52 + x53 + x54 + x55 + x56 + x57
      + x64 + x65 + x66 + x67 + x68 + x69 + x75 + x76 + x77 + x78 + x79 + x80
      + x85 + x86 + x87 + x88 + x89 + x90 + x94 + x95 + x96 + x97 + x98 + x99
      + x102 + x103 + x104 + x105 + x106 + x107 + x109 + x110 + x111 + x112
      + x113 + x114 + x115 + x116 + x117 + x118 + x119 + x120 + x121 + x122
      + x123 + x124 + x125 + x126 + x127 + x128 + x129 + x130 + x131 + x132
      + x133 + x134 >= 1
 c15: x11 + x12 + x13 + x14 + x15 + x26 + x27 + x28 + x29 + x30 + x40 + x41
      + x42 + x43 + x44 + x53 + x54 + x55 + x56 + x57 + x65 + x66 + x67 + x68
      + x69 + x76 + x77 + x78 + x79 + x80 + x86 + x87 + x88 + x89 + x90 + x95
      + x96 + x97 + x98 + x99 + x103 + x104 + x105 + x106 + x107 + x110 + x111
      + x112 + x113 + x114 + x116 + x117 + x118 + x119 + x120 + x121 + x122
      + x123 + x124 + x125 + x126 + x127 + x128 + x129 + x130 + x131 + x132
      + x133 + x134 + x135 >= 1
 c16: x12 + x13 + x14 + x15 + x27 + x28 + x29 + x30 + x41 + x42 + x43 + x44
      + x54 + x55 + x56 + x57 + x66 + x67 + x68 + x69 + x77 + x78 + x79 + x80
      + x87 + x88 + x89 + x90 + x96 + x97 + x98 + x99 + x104 + x105 + x106
      + x107 + x111 + x112 + x113 + x114 + x117 + x118 + x119 + x120 + x122
      + x123 + x124 + x125 + x126 + x127 + x128 + x129 + x130 + x131 + x132
      + x133 + x134 + x135 >= 1
 c17: x13 + x14 + x15 + x28 + x29 + x30 + x42 + x43 + x44 + x55 + x56 + x57
      + x67 + x68 + x69 + x78 + x79 + x80 + x88 + x89 + x90 + x97 + x98 + x99
      + x105 + x106 + x107 + x112 + x113 + x114 + x118 + x119 + x120 + x123
      + x124 + x125 + x127 + x128 + x129 + x130 + x131 + x132 + x133 + x134
      + x135 >= 1
 c18: x14 + x15 + x29 + x30 + x43 + x44 + x56 + x57 + x68 + x69 + x79 + x80
      + x89 + x90 + x98 + x99 + x106 + x107 + x113 + x114 + x119 + x120 + x124
      + x125 + x128 + x129 + x131 + x132 + x133 + x134 + x135 >= 1
 c19: x15 + x30 + x44 + x57 + x69 + x80 + x90 + x99 + x107 + x114 + x120 + x125
      + x129 + x132 + x134 + x135 >= 1
Bounds
 0 <= x0 <= 1
 0 <= x1 <= 1
 0 <= x2 <= 1
 0 <= x3 <= 1
 0 <= x4 <= 1
 0 <= x5 <= 1
 0 <= x6 <= 1
 0 <= x7 <= 1
 0 <= x8 <= 1
 0 <= x9 <= 1
 0 <= x10 <= 1
 0 <= x11 <= 1
 0 <= x12 <= 1
 0 <= x13 <= 1
 0 <= x14 <= 1
 0 <= x15 <= 1
 0 <= x16 <= 1
 0 <= x17 <= 1
 0 <= x18 <= 1
 0 <= x19 <= 1
 0 <= x20 <= 1
 0 <= x21 <= 1
 0 <= x22 <= 1
 0 <= x23 <= 1
 0 <= x24 <= 1
 0 <= x25 <= 1
 0 <= x26 <= 1
 0 <= x27 <= 1
 0 <= x28 <= 1
 0 <= x29 <= 1
 0 <= x30 <= 1
 0 <= x31 <= 1
 0 <= x32 <= 1
 0 <= x33 <= 1
 0 <= x34 <= 1
 0 <= x35 <= 1
 0 <= x36 <= 1
 0 <= x37 <= 1
 0 <= x38 <= 1
 0 <= x39 <= 1
 0 <= x40 <= 1
 0 <= x41 <= 1
 0 <= x42 <= 1
 0 <= x43 <= 1
 0 <= x44 <= 1
 0 <= x45 <= 1
 0 <= x46 <= 1
 0 <= x47 <= 1
 0 <= x48 <= 1
 0 <= x49 <= 1
 0 <= x50 <= 1
 0 <= x51 <= 1
 0 <= x52 <= 1
 0 <= x53 <= 1
 0 <= x54 <= 1
 0 <= x55 <= 1
 0 <= x56 <= 1
 0 <= x57 <= 1
 0 <= x58 <= 1
 0 <= x59 <= 1
 0 <= x60 <= 1
 0 <= x61 <= 1
 0 <= x62 <= 1
 0 <= x63 <= 1
 0 <= x64 <= 1
 0 <= x65 <= 1
 0 <= x66 <= 1
 0 <= x67 <= 1
 0 <= x68 <= 1
 0 <= x69 <= 1
 0 <= x70 <= 1
 0 <= x71 <= 1
 0 <= x72 <= 1
 0 <= x73 <= 1
 0 <= x74 <= 1
 0 <= x75 <= 1
 0 <= x76 <= 1
 0 <= x77 <= 1
 0 <= x78 <= 1
 0 <= x79 <= 1
 0 <= x80 <= 1
 0 <= x81 <= 1
 0 <= x82 <= 1
 0 <= x83 <= 1
 0 <= x84 <= 1
 0 <= x85 <= 1
 0 <= x86 <= 1
 0 <= x87 <= 1
 0 <= x88 <= 1
 0 <= x89 <= 1
 0 <= x90 <= 1
 0 <= x91 <= 1
 0 <= x92 <= 1
 0 <= x93 <= 1
 0 <= x94 <= 1
 0 <= x95 <= 1
 0 <= x96 <= 1
 0 <= x97 <= 1
 0 <= x98 <= 1
 0 <= x99 <= 1
 0 <= x100 <= 1
 0 <= x101 <= 1
 0 <= x102 <= 1
 0 <= x103 <= 1
 0 <= x104 <= 1
 0 <= x105 <= 1
 0 <= x106 <= 1
 0 <= x107 <= 1
 0 <= x108 <= 1
 0 <= x109 <= 1
 0 <= x110 <= 1
 0 <= x111 <= 1
 0 <= x112 <= 1
 0 <= x113 <= 1
 0 <= x114 <= 1
 0 <= x115 <= 1
 0 <= x116 <= 1
 0 <= x117 <= 1
 0 <= x118 <= 1
 0 <= x119 <= 1
 0 <= x120 <= 1
 0 <= x121 <= 1
 0 <= x122 <= 1
 0 <= x123 <= 1
 0 <= x124 <= 1
 0 <= x125 <= 1
 0 <= x126 <= 1
 0 <= x127 <= 1
 0 <= x128 <= 1
 0 <= x129 <= 1
 0 <= x130 <= 1
 0 <= x131 <= 1
 0 <= x132 <= 1
 0 <= x133 <= 1
 0 <= x134 <= 1
 0 <= x135 <= 1
Generals
 x0  x1  x2  x3  x4  x5  x6  x7  x8  x9  x10  x11  x12  x13  x14  x15  x16 
 x17  x18  x19  x20  x21  x22  x23  x24  x25  x26  x27  x28  x29  x30  x31 
 x32  x33  x34  x35  x36  x37  x38  x39  x40  x41  x42  x43  x44  x45  x46 
 x47  x48  x49  x50  x51  x52  x53  x54  x55  x56  x57  x58  x59  x60  x61 
 x62  x63  x64  x65  x66  x67  x68  x69  x70  x71  x72  x73  x74  x75  x76 
 x77  x78  x79  x80  x81  x82  x83  x84  x85  x86  x87  x88  x89  x90  x91 
 x92  x93  x94  x95  x96  x97  x98  x99  x100  x101  x102  x103  x104  x105 
 x106  x107  x108  x109  x110  x111  x112  x113  x114  x115  x116  x117  x118 
 x119  x120  x121  x122  x123  x124  x125  x126  x127  x128  x129  x130  x131 
 x132  x133  x134  x135 
End
